% seed = 0

mint = 18;
% maxt = 51;

nActs = 22;
dur = [0,1,4,1,4,1,2,4,1,3,2,2,6,2,5,3,2,3,2,2,1,0];

nSkills = 4;
sreq = [| 0,0,0,0,
	| 0,2,0,0,
	| 0,3,3,1,
	| 1,2,1,3,
	| 0,0,1,0,
	| 1,1,1,0,
	| 1,1,2,1,
	| 0,0,0,2,
	| 0,2,1,3,
	| 1,1,0,1,
	| 0,2,0,1,
	| 0,0,1,0,
	| 2,0,0,1,
	| 3,1,1,2,
	| 2,1,1,2,
	| 2,1,3,0,
	| 0,0,0,1,
	| 0,1,1,0,
	| 1,1,0,0,
	| 1,0,3,3,
	| 0,1,0,0,
	| 0,0,0,0, |];

% SumOfsreq = 75;

nResources = 10;
mastery = [| true,true,false,true,
	| true,true,false,true,
	| false,true,true,true,
	| true,true,true,false,
	| true,true,false,true,
	| true,false,true,true,
	| true,false,true,true,
	| true,false,true,true,
	| true,true,true,false,
	| false,true,true,true, |];

nPrecs = 40;
pred = [1,1,1,2,2,2,3,3,3,4,4,4,5,5,5,6,6,6,7,7,7,8,8,9,9,10,11,12,12,13,14,15,15,16,17,18,18,19,20,21];
succ = [2,3,4,21,11,13,9,5,7,12,6,15,11,20,6,16,21,8,10,11,12,17,10,12,16,19,17,13,14,17,18,18,16,19,19,20,21,22,22,22];

nUnrels = 95;
unpred = [2,2,2,2,2,2,2,2,2,2,2,2,2,2,3,3,4,4,4,4,5,5,5,5,5,5,5,6,6,6,6,6,6,6,6,6,7,7,7,7,8,8,8,8,8,8,8,8,8,8,9,9,9,10,10,10,10,10,10,10,10,10,10,11,11,11,11,11,11,11,11,12,12,13,13,13,13,13,13,14,14,14,14,15,16,16,16,16,17,17,17,18,19,19,20];
unsucc = [3,4,5,6,7,8,9,10,12,14,15,16,18,20,4,15,5,7,9,11,7,9,12,13,14,15,18,7,9,11,12,13,14,15,18,20,8,9,15,16,9,11,12,13,14,15,16,18,20,21,10,11,15,11,12,13,14,15,16,17,18,20,21,12,13,14,15,16,18,20,21,15,16,14,15,16,18,20,21,15,16,17,19,17,17,18,20,21,18,20,21,19,20,21,21];

USEFUL_RES = [{},
	{1,2,3,4,5,9,10},
	{1,2,3,4,5,6,7,8,9,10},
	{1,2,3,4,5,6,7,8,9,10},
	{3,4,6,7,8,9,10},
	{1,2,3,4,5,6,7,8,9,10},
	{1,2,3,4,5,6,7,8,9,10},
	{1,2,3,5,6,7,8,10},
	{1,2,3,4,5,6,7,8,9,10},
	{1,2,3,4,5,6,7,8,9,10},
	{1,2,3,4,5,6,7,8,9,10},
	{3,4,6,7,8,9,10},
	{1,2,3,4,5,6,7,8,9,10},
	{1,2,3,4,5,6,7,8,9,10},
	{1,2,3,4,5,6,7,8,9,10},
	{1,2,3,4,5,6,7,8,9,10},
	{1,2,3,5,6,7,8,10},
	{1,2,3,4,5,6,7,8,9,10},
	{1,2,3,4,5,6,7,8,9,10},
	{1,2,3,4,5,6,7,8,9,10},
	{1,2,3,4,5,9,10},
	{}];

POTENTIAL_ACT = [{2,3,4,6,7,8,9,10,11,13,14,15,16,17,18,19,20,21},
	{2,3,4,6,7,8,9,10,11,13,14,15,16,17,18,19,20,21},
	{2,3,4,5,6,7,8,9,10,11,12,13,14,15,16,17,18,19,20,21},
	{2,3,4,5,6,7,9,10,11,12,13,14,15,16,18,19,20,21},
	{2,3,4,6,7,8,9,10,11,13,14,15,16,17,18,19,20,21},
	{3,4,5,6,7,8,9,10,11,12,13,14,15,16,17,18,19,20},
	{3,4,5,6,7,8,9,10,11,12,13,14,15,16,17,18,19,20},
	{3,4,5,6,7,8,9,10,11,12,13,14,15,16,17,18,19,20},
	{2,3,4,5,6,7,9,10,11,12,13,14,15,16,18,19,20,21},
	{2,3,4,5,6,7,8,9,10,11,12,13,14,15,16,17,18,19,20,21}];
